32      3       
19      17      12      
0       0       0       0       3       2       3       4       
8       3       6       0       3       6       10      11      
5       5       0       0       3       5       8       12      
6       10      0       6       1       28      
9       0       9       4       1       18      
8       5       0       1       3       7       9       13      
2       0       0       9       1       14      
1       7       7       0       2       15      25      
6       1       0       0       2       27      29      
1       6       0       0       1       27      
8       0       7       0       3       19      22      26      
4       6       3       0       3       21      23      24      
2       0       6       4       1       17      
7       0       0       8       1       20      
2       0       5       4       2       16      18      
7       0       0       9       1       26      
10      0       2       0       1       24      
3       6       0       0       1       31      
10      5       0       0       1       21      
4       0       0       5       1       26      
2       0       0       2       1       30      
2       9       8       2       1       27      
9       7       9       0       1       25      
10      0       0       1       2       25      30      
6       0       4       0       1       29      
5       7       5       7       1       28      
6       8       0       0       2       28      31      
7       2       0       0       1       30      
1       3       0       0       1       32      
10      3       8       2       1       32      
5       0       1       7       1       32      
0       0       0       0       0       